proyfinal/src/viki/013/andrea/andrea-localstore/experimentInOfficeAgust.take6/worker_6/4d9e8210-8991-4ffe-a58a-4ac8baa99fbc.als.cnf.out
Reading from standard input... Use '--help' for help.
============================[ Problem Statistics ]=============================
|                                                                             |
|  Number of variables:         87638                                         |
|  Number of clauses:          161767                                         |
|  Parse time:                   0.03 s                                       |
|                                                                             |
============================[ Search Statistics ]==============================
| Conflicts |          ORIGINAL         |          LEARNT          | Progress |
|           |    Vars  Clauses Literals |    Limit  Clauses Lit/Cl |          |
===============================================================================
|       100 |   62118   104414   260475 |    38285      100     26 | 29.120 % |
|       250 |   62118   104414   260475 |    42113      250    133 | 29.120 % |
|       475 |   62117   104370   260385 |    46325      474     99 | 29.121 % |
|       812 |   62117   104370   260385 |    50957      811     83 | 29.121 % |
|      1318 |   62117   104370   260385 |    56053     1317     97 | 29.121 % |
|      2077 |   62117   104370   260385 |    61658     2076     94 | 29.121 % |
|      3216 |   62117   104370   260385 |    67824     3215     87 | 29.121 % |
|      4924 |   62117   104370   260385 |    74606     4923     90 | 29.121 % |
|      7486 |   62117   104370   260385 |    82067     7485     92 | 29.121 % |
|     11330 |   62117   104370   260385 |    90274    11329     95 | 29.121 % |
|     17096 |   52542    75409   189426 |    99301    16302     95 | 40.047 % |
===============================================================================
restarts              : 63
conflicts             : 18368          (7200 /sec)
decisions             : 57440          (0.00 % random) (22516 /sec)
propagations          : 23295575       (9131709 /sec)
conflict literals     : 1675938        (52.02 % deleted)
Memory used           : 39.31 MB
CPU time              : 2.55106 s

UNSATISFIABLE
